NAME: C:\Users\Danial\Desktop\NewMap.tsp
TYPE: TSP
DIMENSION: 10
EDGE_WEIGHT_TYPE: EUC_2D
DISPLAY_DATA_TYPE: COORD_DISPLAY
NODE_COORD_SECTION
1 11 20
2 18 15
3 18 26
4 31 15
5 31 26
6 46 15
7 46 26
8 60 15
9 60 26
10 68 20
EOF
